p cnf 15 25
15 14 -4 0
-15 13 -10 0
15 -13 1 0
-15 11 1 0
15 10 -5 0
15 -8 -7 0
-15 8 -3 0
15 7 -4 0
-14 9 -2 0
14 -8 7 0
14 -8 -4 0
13 -12 5 0
-13 11 -7 0
13 5 -4 0
13 4 -3 0
-12 -10 5 0
12 -9 -5 0
11 -10 -2 0
-11 9 -2 0
-10 7 2 0
-9 -7 -1 0
-8 -7 1 0
7 2 -1 0
-6 -5 4 0
6 2 1 0
